(declare-const a Real)
(declare-const b Real)
(declare-const c Real)
(assert (= (+ a b c) 3))
(assert (> a 0))
(assert (> b 0))
(assert (> c 0))
(assert (not (<= (+ (* -99614720 a (pow c 4)) (* -99614720 b (pow a 4)) (* -96634880 c (pow b 4)) (* -19922944 a (pow b 4)) (* -19922944 b (pow c 4)) (* -18350080 (pow a 2) (pow c 3)) (* -18350080 (pow a 3) (pow b 2)) (* -16943104 c (pow a 4)) (* 6480 c (pow (+ (* 2 a) (* 2 b)) 4)) (* 13107200 (pow b 3) (pow c 2)) (* 18350080 (pow a 2) (pow b 3)) (* 18350080 (pow b 2) (pow c 3)) (* 49807360 (pow a 3) (pow c 2)) (* 88080384 a b (pow c 3)) (* 99999744 a c (pow (+ (/ 2 5) (* (/ 3 5) b)) 5)) (* 99999744 b c (pow a 3))) 0)))
(check-sat)
(get-model)
(exit)